Results/Experiment 1 Results/New Benchmark/RES_40/output_p1_0.00_p2_0.00_n_40_09.txt
solutions: 5184 nodes: 9418  modelTime: 143  solveTime: 158  totalTime: 307  modelSize: 7389  readTime: 6 matchingSize: 20
