Results/Experiment 2 Results/New Benchmark/output_p1_0.00_p2_0.00_n_40_09.lp
clingo version 5.4.0
Reading from tempSRTISolver.lp ...
Solving...
Answer: 1
matched(6,2) matched(1,3) matched(8,4) matched(7,5) matched(2,6) matched(5,7) matched(4,8) matched(12,10) matched(9,11) matched(10,12) matched(11,9) matched(13,14) matched(20,15) matched(19,16) matched(18,17) matched(17,18) matched(16,19) matched(15,20) matched(14,13) matched(21,22) matched(28,23) matched(27,24) matched(26,25) matched(25,26) matched(24,27) matched(23,28) matched(22,21) matched(29,30) matched(32,31) matched(31,32) matched(30,29) matched(39,34) matched(40,35) matched(33,36) matched(38,37) matched(37,38) matched(34,39) matched(35,40) matched(36,33) matched(3,1)
Optimization: 384
Answer: 2
matched(6,2) matched(1,3) matched(8,4) matched(7,5) matched(2,6) matched(5,7) matched(4,8) matched(12,10) matched(9,11) matched(10,12) matched(11,9) matched(19,14) matched(20,15) matched(13,16) matched(18,17) matched(17,18) matched(14,19) matched(15,20) matched(16,13) matched(21,22) matched(28,23) matched(27,24) matched(26,25) matched(25,26) matched(24,27) matched(23,28) matched(22,21) matched(29,30) matched(32,31) matched(31,32) matched(30,29) matched(39,34) matched(40,35) matched(33,36) matched(38,37) matched(37,38) matched(34,39) matched(35,40) matched(36,33) matched(3,1)
Optimization: 381
Answer: 3
matched(6,2) matched(1,3) matched(8,4) matched(7,5) matched(2,6) matched(5,7) matched(4,8) matched(12,10) matched(9,11) matched(10,12) matched(11,9) matched(19,14) matched(20,15) matched(13,16) matched(18,17) matched(17,18) matched(14,19) matched(15,20) matched(16,13) matched(21,22) matched(28,23) matched(27,24) matched(26,25) matched(25,26) matched(24,27) matched(23,28) matched(22,21) matched(29,30) matched(32,31) matched(31,32) matched(30,29) matched(33,34) matched(40,35) matched(39,36) matched(38,37) matched(37,38) matched(36,39) matched(35,40) matched(34,33) matched(3,1)
Optimization: 363
Answer: 4
matched(6,2) matched(1,3) matched(8,4) matched(7,5) matched(2,6) matched(5,7) matched(4,8) matched(12,10) matched(9,11) matched(10,12) matched(11,9) matched(18,14) matched(13,15) matched(20,16) matched(19,17) matched(14,18) matched(17,19) matched(16,20) matched(15,13) matched(21,22) matched(28,23) matched(27,24) matched(26,25) matched(25,26) matched(24,27) matched(23,28) matched(22,21) matched(29,30) matched(32,31) matched(31,32) matched(30,29) matched(33,34) matched(40,35) matched(39,36) matched(38,37) matched(37,38) matched(36,39) matched(35,40) matched(34,33) matched(3,1)
Optimization: 362
Answer: 5
matched(6,2) matched(1,3) matched(8,4) matched(7,5) matched(2,6) matched(5,7) matched(4,8) matched(12,10) matched(9,11) matched(10,12) matched(11,9) matched(13,14) matched(18,15) matched(19,16) matched(20,17) matched(15,18) matched(16,19) matched(17,20) matched(14,13) matched(21,22) matched(28,23) matched(27,24) matched(26,25) matched(25,26) matched(24,27) matched(23,28) matched(22,21) matched(29,30) matched(32,31) matched(31,32) matched(30,29) matched(33,34) matched(40,35) matched(39,36) matched(38,37) matched(37,38) matched(36,39) matched(35,40) matched(34,33) matched(3,1)
Optimization: 360
Answer: 6
matched(6,2) matched(1,3) matched(8,4) matched(7,5) matched(2,6) matched(5,7) matched(4,8) matched(12,10) matched(9,11) matched(10,12) matched(11,9) matched(19,14) matched(18,15) matched(13,16) matched(20,17) matched(15,18) matched(14,19) matched(17,20) matched(16,13) matched(21,22) matched(28,23) matched(27,24) matched(26,25) matched(25,26) matched(24,27) matched(23,28) matched(22,21) matched(29,30) matched(32,31) matched(31,32) matched(30,29) matched(33,34) matched(40,35) matched(39,36) matched(38,37) matched(37,38) matched(36,39) matched(35,40) matched(34,33) matched(3,1)
Optimization: 357
Answer: 7
matched(6,2) matched(1,3) matched(8,4) matched(7,5) matched(2,6) matched(5,7) matched(4,8) matched(12,10) matched(9,11) matched(10,12) matched(11,9) matched(20,14) matched(18,15) matched(13,16) matched(19,17) matched(15,18) matched(17,19) matched(14,20) matched(16,13) matched(21,22) matched(28,23) matched(27,24) matched(26,25) matched(25,26) matched(24,27) matched(23,28) matched(22,21) matched(29,30) matched(32,31) matched(31,32) matched(30,29) matched(33,34) matched(40,35) matched(39,36) matched(38,37) matched(37,38) matched(36,39) matched(35,40) matched(34,33) matched(3,1)
Optimization: 356
Answer: 8
matched(6,2) matched(1,3) matched(8,4) matched(7,5) matched(2,6) matched(5,7) matched(4,8) matched(12,10) matched(9,11) matched(10,12) matched(11,9) matched(20,14) matched(18,15) matched(13,16) matched(19,17) matched(15,18) matched(17,19) matched(14,20) matched(16,13) matched(21,22) matched(26,23) matched(27,24) matched(28,25) matched(23,26) matched(24,27) matched(25,28) matched(22,21) matched(29,30) matched(32,31) matched(31,32) matched(30,29) matched(33,34) matched(40,35) matched(39,36) matched(38,37) matched(37,38) matched(36,39) matched(35,40) matched(34,33) matched(3,1)
Optimization: 355
Answer: 9
matched(8,2) matched(6,3) matched(1,4) matched(7,5) matched(3,6) matched(5,7) matched(2,8) matched(12,10) matched(9,11) matched(10,12) matched(11,9) matched(20,14) matched(18,15) matched(13,16) matched(19,17) matched(15,18) matched(17,19) matched(14,20) matched(16,13) matched(21,22) matched(26,23) matched(27,24) matched(28,25) matched(23,26) matched(24,27) matched(25,28) matched(22,21) matched(29,30) matched(32,31) matched(31,32) matched(30,29) matched(33,34) matched(40,35) matched(39,36) matched(38,37) matched(37,38) matched(36,39) matched(35,40) matched(34,33) matched(4,1)
Optimization: 354
OPTIMUM FOUND

Models       : 9
  Optimum    : yes
Optimization : 354
Calls        : 1
Time         : 1.803s (Solving: 0.23s 1st Model: 0.00s Unsat: 0.02s)
CPU Time     : 1.771s
